instances/shortest_path/discrete_knapsack_uncertainty/nohadani_3_10.lp
\ Model nohadani_3_10
\ LP format - for model browsing. Use MPS format to capture full model detail.
\ Signature: 0xf9a0f44b955a6a9b
Minimize
  85.14693182963201 y[0,1] + 84.11896337925236 y[0,2]
   + 85.14693182963201 y[1,0] + 17.4928556845359 y[1,2]
   + 84.11896337925236 y[2,0] + 17.4928556845359 y[2,1] + x[0,1] + x[0,2]
   + x[1,0] + x[1,2] + x[2,0] + x[2,1] + 8.514693182963201 r[0,1]
   + 8.411896337925237 r[0,2] + 8.514693182963201 r[1,0]
   + 1.74928556845359 r[1,2] + 8.411896337925237 r[2,0]
   + 1.74928556845359 r[2,1]
Subject To
 flow_cons_inner_nodes[2]: y[0,2] + y[1,2] - y[2,0] - y[2,1] = 0
 flow_cons_source: y[0,1] + y[0,2] - y[1,0] - y[2,0] = 1
 flow_cons_target: y[0,1] - y[1,0] - y[1,2] + y[2,1] = 1
 primal_lower: 1.744292039694013 x[0,1] + 8.920973203237686 x[0,2]
   + 4.652490429453283 x[1,0] + 10.66012818334691 x[1,2]
   + 8.199611325526282 x[2,0] + 4.44154927731255 x[2,1] + 53 u[0,1]
   + 29 u[0,2] + 63 u[1,0] + 4 u[1,2] + 57 u[2,0] + 71 u[2,1] <= 71
 mccormick1[0,1]: - u[0,1] + r[0,1] <= 0
 mccormick1[0,2]: - u[0,2] + r[0,2] <= 0
 mccormick1[1,0]: - u[1,0] + r[1,0] <= 0
 mccormick1[1,2]: - u[1,2] + r[1,2] <= 0
 mccormick1[2,0]: - u[2,0] + r[2,0] <= 0
 mccormick1[2,1]: - u[2,1] + r[2,1] <= 0
 mccormick2[0,1]: - y[0,1] + r[0,1] <= 0
 mccormick2[0,2]: - y[0,2] + r[0,2] <= 0
 mccormick2[1,0]: - y[1,0] + r[1,0] <= 0
 mccormick2[1,2]: - y[1,2] + r[1,2] <= 0
 mccormick2[2,0]: - y[2,0] + r[2,0] <= 0
 mccormick2[2,1]: - y[2,1] + r[2,1] <= 0
 mccormick3[0,1]: - y[0,1] - u[0,1] + r[0,1] >= -1
 mccormick3[0,2]: - y[0,2] - u[0,2] + r[0,2] >= -1
 mccormick3[1,0]: - y[1,0] - u[1,0] + r[1,0] >= -1
 mccormick3[1,2]: - y[1,2] - u[1,2] + r[1,2] >= -1
 mccormick3[2,0]: - y[2,0] - u[2,0] + r[2,0] >= -1
 mccormick3[2,1]: - y[2,1] - u[2,1] + r[2,1] >= -1
Bounds
Binaries
 y[0,1] y[0,2] y[1,0] y[1,2] y[2,0] y[2,1] x[0,1] x[0,2] x[1,0] x[1,2]
 x[2,0] x[2,1] u[0,1] u[0,2] u[1,0] u[1,2] u[2,0] u[2,1] r[0,1] r[0,2]
 r[1,0] r[1,2] r[2,0] r[2,1]
End
